(declare-fun var0 () String)
(assert (RegexIn var0 (RegexConcat (RegexUnion (RegexUnion (Str2Reg "zz") (Str2Reg "A")) (RegexStar (Str2Reg "B"))) (RegexConcat (RegexPlus (RegexPlus (Str2Reg "y"))) (RegexConcat (RegexStar (RegexPlus (Str2Reg "xxx"))) (RegexConcat (RegexPlus (RegexUnion (Str2Reg "v") (Str2Reg "ww"))) (RegexConcat (RegexPlus (RegexStar (Str2Reg "u"))) (RegexConcat (RegexPlus (RegexStar (Str2Reg "ttt"))) (RegexConcat (RegexStar (RegexPlus (Str2Reg "sss"))) (RegexConcat (RegexPlus (RegexStar (Str2Reg "rr"))) (RegexConcat (RegexPlus (RegexUnion (Str2Reg "p") (Str2Reg "q"))) (RegexConcat (RegexPlus (RegexStar (Str2Reg "oo"))) (RegexConcat (RegexStar (RegexStar (Str2Reg "n"))) (RegexConcat (RegexStar (RegexUnion (Str2Reg "ll") (Str2Reg "mmm"))) (RegexConcat (RegexUnion (RegexPlus (Str2Reg "ii")) (RegexUnion (Str2Reg "j") (Str2Reg "k"))) (RegexConcat (RegexPlus (RegexPlus (Str2Reg "h"))) (RegexConcat (RegexPlus (RegexPlus (Str2Reg "ggg"))) (RegexConcat (RegexUnion (RegexStar (Str2Reg "eee")) (RegexPlus (Str2Reg "fff"))) (RegexConcat (RegexStar (RegexUnion (Str2Reg "c") (Str2Reg "d"))) (RegexConcat (RegexStar (RegexStar (Str2Reg "bbb"))) (RegexConcat (RegexUnion (RegexPlus (Str2Reg "8")) (RegexUnion (Str2Reg "9") (Str2Reg "aaa"))) (RegexConcat (RegexPlus (RegexStar (Str2Reg "7"))) (RegexConcat (RegexPlus (RegexPlus (Str2Reg "666"))) (RegexConcat (RegexPlus (RegexPlus (Str2Reg "555"))) (RegexConcat (RegexStar (RegexStar (Str2Reg "444"))) (RegexConcat (RegexPlus (RegexPlus (Str2Reg "33"))) (RegexConcat (RegexUnion (RegexStar (Str2Reg "111")) (RegexPlus (Str2Reg "2"))) (RegexPlus (RegexPlus (Str2Reg "00"))))))))))))))))))))))))))))))
(assert (not (RegexIn var0 (RegexConcat (RegexStar (RegexUnion (Str2Reg "I") (Str2Reg "JJ"))) (RegexConcat (RegexStar (RegexStar (Str2Reg "HHH"))) (RegexConcat (RegexPlus (RegexPlus (Str2Reg "G"))) (RegexConcat (RegexPlus (RegexPlus (Str2Reg "FFF"))) (RegexConcat (RegexUnion (RegexPlus (Str2Reg "C")) (RegexUnion (Str2Reg "DD") (Str2Reg "EEE"))) (RegexConcat (RegexStar (RegexUnion (Str2Reg "AA") (Str2Reg "B"))) (RegexConcat (RegexStar (RegexUnion (Str2Reg "y") (Str2Reg "zzz"))) (RegexConcat (RegexUnion (RegexUnion (Str2Reg "v") (Str2Reg "www")) (RegexStar (Str2Reg "xx"))) (RegexConcat (RegexPlus (RegexUnion (Str2Reg "ttt") (Str2Reg "uu"))) (RegexConcat (RegexUnion (RegexUnion (Str2Reg "pp") (Str2Reg "qqq")) (RegexUnion (Str2Reg "r") (Str2Reg "ss"))) (RegexConcat (RegexUnion (RegexStar (Str2Reg "m")) (RegexUnion (Str2Reg "nn") (Str2Reg "oo"))) (RegexConcat (RegexUnion (RegexUnion (Str2Reg "ii") (Str2Reg "j")) (RegexUnion (Str2Reg "kkk") (Str2Reg "lll"))) (RegexConcat (RegexUnion (RegexStar (Str2Reg "ggg")) (RegexPlus (Str2Reg "h"))) (RegexConcat (RegexStar (RegexUnion (Str2Reg "ee") (Str2Reg "f"))) (RegexConcat (RegexStar (RegexStar (Str2Reg "dd"))) (RegexConcat (RegexPlus (RegexStar (Str2Reg "ccc"))) (RegexConcat (RegexPlus (RegexStar (Str2Reg "bbb"))) (RegexConcat (RegexPlus (RegexPlus (Str2Reg "aaa"))) (RegexConcat (RegexPlus (RegexPlus (Str2Reg "9"))) (RegexConcat (RegexStar (RegexUnion (Str2Reg "777") (Str2Reg "8"))) (RegexConcat (RegexPlus (RegexPlus (Str2Reg "666"))) (RegexConcat (RegexStar (RegexUnion (Str2Reg "4") (Str2Reg "5"))) (RegexConcat (RegexStar (RegexStar (Str2Reg "333"))) (RegexConcat (RegexStar (RegexStar (Str2Reg "222"))) (RegexConcat (RegexStar (RegexStar (Str2Reg "1"))) (RegexStar (RegexPlus (Str2Reg "000")))))))))))))))))))))))))))))))
(check-sat)